(set-logic SLIA)
(define-fun succ ((X Int) ) Int (+ 1 X ))
(define-fun pred ((X Int) ) Int (+ -1 X ))
(define-fun firstidx ((X String) (Y String) ) Int (str.indexof X Y 1 ))
(define-fun rpself ((X String) (Y String) (N Int) (M Int)) String (str.replace X (str.substr X N M) Y))
(synth-fun f ((name String)) String
    ((Start String (ntString))
     (ntString String (name " "
(str.++ ntString ntString)
(str.replace ntString ntString ntString)
(str.at ntString ntInt)
(int.to.str ntInt)
(ite ntBool ntString ntString)
(str.substr ntString ntInt ntInt)
))
      (ntInt Int (0 1 2 3 4 5
(+ ntInt ntInt)
(- ntInt ntInt)
(str.len ntString)
(str.to.int ntString)
(str.indexof ntString ntString ntInt)
))
(ntBool Bool (true false
(= ntInt ntInt)
(str.prefixof ntString ntString)
(str.suffixof ntString ntString)
(str.contains ntString ntString)
))
))
(constraint (= (f "938-242-504") "938"))
(constraint (= (f "308-916-545") "308"))
(constraint (= (f "623-599-749") "623"))
(constraint (= (f "981-424-843") "981"))
(constraint (= (f "118-980-214") "118"))
(constraint (= (f "244-655-094") "244"))

(check-synth)
(define-fun f_1 ((name String)) String (str.substr name 0 3))
